NAME : B-n38-k6.445627.tour
COMMENT : Length = 445627
COMMENT : Found by LKH [Keld Helsgaun] Sun Dec 17 19:07:26 2017
TYPE : TOUR
DIMENSION : 43
TOUR_SECTION
1
22
29
14
38
3
36
42
26
8
13
30
25
35
9
18
37
41
15
16
2
11
21
39
32
10
20
7
31
43
27
17
23
12
33
4
40
28
6
24
34
19
5
-1
EOF
